50
100
97
93
93
92
92
91
90
88
86
85
85
85
82
81
80
79
75
73
71
70
70
67
66
64
62
62
61
54
48
48
47
46
44
41
40
39
34
29
24
24
21
18
16
16
14
13
11
10
5
1
